objective value:                                 5600
t_x3                                                1 	(obj:0)
t_x28                                               1 	(obj:0)
t_x43                               0.999999999999999 	(obj:0)
t_x83                                               1 	(obj:0)
t_x88                                               1 	(obj:0)
t_x93                                               1 	(obj:0)
t_x98                                               1 	(obj:0)
t_x103                                              1 	(obj:0)
t_x108                                              1 	(obj:0)
t_x113                                              1 	(obj:0)
t_x118                                              1 	(obj:0)
t_x123                                              1 	(obj:0)
t_x133                                              1 	(obj:0)
t_x138                                              1 	(obj:0)
t_x163                                              1 	(obj:0)
t_x166                                              1 	(obj:0)
t_x168                                              1 	(obj:0)
t_x170                                              1 	(obj:0)
t_x172                                              1 	(obj:0)
t_x174                                              1 	(obj:0)
t_x176                                              1 	(obj:0)
t_x180                                              1 	(obj:0)
t_x182                                              1 	(obj:0)
t_x184                                              1 	(obj:0)
t_x200                                              1 	(obj:0)
t_x202                                              1 	(obj:0)
t_x210                                              1 	(obj:0)
t_x212                                              1 	(obj:0)
t_x214                                              1 	(obj:0)
t_x216                                              1 	(obj:0)
t_x218                                              1 	(obj:0)
t_x222                                              1 	(obj:0)
t_x224                                              1 	(obj:0)
t_x226                                              1 	(obj:0)
t_x288                                              1 	(obj:0)
t_x290                                              1 	(obj:0)
t_x292                                              1 	(obj:0)
t_x294                                              1 	(obj:0)
t_x296                                              1 	(obj:0)
t_x298                                              1 	(obj:0)
t_x300                                              1 	(obj:0)
t_x302                                              1 	(obj:0)
t_x304                                              1 	(obj:0)
t_x306                                              1 	(obj:0)
t_x308                                              1 	(obj:0)
t_x310                                              1 	(obj:0)
t_x312                                              1 	(obj:0)
t_x314                                              1 	(obj:0)
t_x316                                              1 	(obj:0)
t_x318                                              1 	(obj:0)
t_x320                                              1 	(obj:0)
t_x322                                              1 	(obj:0)
t_x324                                              1 	(obj:0)
t_x326                                              1 	(obj:0)
t_x328                                              1 	(obj:0)
t_x330                                              1 	(obj:0)
t_x332                                              1 	(obj:0)
t_x334                                              1 	(obj:0)
t_x336                                              1 	(obj:0)
t_x338                                              1 	(obj:0)
t_x340                                              1 	(obj:0)
t_x342                                              1 	(obj:0)
t_x344                                              1 	(obj:0)
t_x346                                              1 	(obj:0)
t_x348                                              1 	(obj:0)
t_x350                                              1 	(obj:0)
t_x354                                              1 	(obj:0)
t_x356                                              1 	(obj:0)
t_x358                                              1 	(obj:0)
t_x376                                              1 	(obj:0)
t_x384                                              1 	(obj:0)
t_x386                                              1 	(obj:0)
t_x388                                              1 	(obj:0)
t_x390                                              1 	(obj:0)
t_x392                                              1 	(obj:0)
t_x396                                              1 	(obj:0)
t_x398                                              1 	(obj:0)
t_x400                                              1 	(obj:0)
t_x402                                              1 	(obj:0)
t_x404                                              1 	(obj:0)
t_x408                                              1 	(obj:0)
t_x410                                              1 	(obj:0)
t_x412                                              1 	(obj:0)
t_x430                                              1 	(obj:0)
t_x438                                              1 	(obj:0)
t_x440                                              1 	(obj:0)
t_x442                                              1 	(obj:0)
t_x444                                              1 	(obj:0)
t_x446                                              1 	(obj:0)
t_x450                                              1 	(obj:0)
t_x452                                              1 	(obj:0)
t_x454                                              1 	(obj:0)
t_x456                                              1 	(obj:0)
t_x460                                              1 	(obj:0)
t_x462                                              1 	(obj:0)
t_x464                                              1 	(obj:0)
t_x482                                              1 	(obj:0)
t_x490                                              1 	(obj:0)
t_x492                                              1 	(obj:0)
t_x494                                              1 	(obj:0)
t_x496                                              1 	(obj:0)
t_x498                                              1 	(obj:0)
t_x502                                              1 	(obj:0)
t_x504                                              1 	(obj:0)
t_x506                                              1 	(obj:0)
t_x510                                              1 	(obj:0)
t_x512                                              1 	(obj:0)
t_x514                                              1 	(obj:0)
t_x532                                              1 	(obj:0)
t_x540                                              1 	(obj:0)
t_x542                                              1 	(obj:0)
t_x544                                              1 	(obj:0)
t_x546                                              1 	(obj:0)
t_x548                                              1 	(obj:0)
t_x552                                              1 	(obj:0)
t_x554                                              1 	(obj:0)
t_x556                                              1 	(obj:0)
t_x558                                              1 	(obj:0)
t_x560                                              1 	(obj:0)
t_x562                                              1 	(obj:0)
t_x564                                              1 	(obj:0)
t_x566                                              1 	(obj:0)
t_x568                                              1 	(obj:0)
t_x570                                              1 	(obj:0)
t_x572                                              1 	(obj:0)
t_x576                                              1 	(obj:0)
t_x578                                              1 	(obj:0)
t_x580                                              1 	(obj:0)
t_x582                                              1 	(obj:0)
t_x584                                              1 	(obj:0)
t_x586                                              1 	(obj:0)
t_x588                                              1 	(obj:0)
t_x590                                              1 	(obj:0)
t_x592                                              1 	(obj:0)
t_x594                                              1 	(obj:0)
t_x596                                              1 	(obj:0)
t_x598                                              1 	(obj:0)
t_x600                                              1 	(obj:0)
t_x602                                              1 	(obj:0)
t_x604                                              1 	(obj:0)
t_x606                                              1 	(obj:0)
t_x608                                              1 	(obj:0)
t_x626                                              1 	(obj:0)
t_x634                                              1 	(obj:0)
t_x636                                              1 	(obj:0)
t_x638                                              1 	(obj:0)
t_x640                                              1 	(obj:0)
t_x642                                              1 	(obj:0)
t_x646                                              1 	(obj:0)
t_x648                                              1 	(obj:0)
t_x650                                              1 	(obj:0)
t_x652                                              1 	(obj:0)
t_x670                                              1 	(obj:0)
t_x678                                              1 	(obj:0)
t_x680                                              1 	(obj:0)
t_x682                                              1 	(obj:0)
t_x684                                              1 	(obj:0)
t_x686                                              1 	(obj:0)
t_x690                                              1 	(obj:0)
t_x692                                              1 	(obj:0)
t_x694                                              1 	(obj:0)
t_x696                                              1 	(obj:0)
t_x698                                              1 	(obj:0)
t_x700                                              1 	(obj:0)
t_x702                                              1 	(obj:0)
t_x704                                              1 	(obj:0)
t_x706                                              1 	(obj:0)
t_x708                                              1 	(obj:0)
t_x710                                              1 	(obj:0)
t_x712                                              1 	(obj:0)
t_x714                                              1 	(obj:0)
t_x716                                              1 	(obj:0)
t_x718                                              1 	(obj:0)
t_x720                                              1 	(obj:0)
t_x722                                              1 	(obj:0)
t_x724                                              1 	(obj:0)
t_x726                                              1 	(obj:0)
t_x728                                              1 	(obj:0)
t_x730                                              1 	(obj:0)
t_x732                                              1 	(obj:0)
t_x734                                              1 	(obj:0)
t_x736                                              1 	(obj:0)
t_x738                                              1 	(obj:0)
t_x740                                              1 	(obj:0)
t_x742                                              1 	(obj:0)
t_x744                                              1 	(obj:0)
t_x748                                              1 	(obj:0)
t_x750                                              1 	(obj:0)
t_x752                                              1 	(obj:0)
t_x754                                              1 	(obj:0)
t_x756                                              1 	(obj:0)
t_x758                                              1 	(obj:0)
t_x760                                              1 	(obj:0)
t_x762                                              1 	(obj:0)
t_x764                                              1 	(obj:0)
t_x766                                              1 	(obj:0)
t_x768                                              1 	(obj:0)
t_x770                                              1 	(obj:0)
t_x772                                              1 	(obj:0)
t_x774                                              1 	(obj:0)
t_x776                                              1 	(obj:0)
t_x778                                              1 	(obj:0)
t_x780                                              1 	(obj:0)
t_x782                                              1 	(obj:0)
t_x784                                              1 	(obj:0)
t_x786                                              1 	(obj:0)
t_x788                                              1 	(obj:0)
t_x790                                              1 	(obj:0)
t_x792                                              1 	(obj:0)
t_x794                                              1 	(obj:0)
t_x796                                              1 	(obj:0)
t_x798                                              1 	(obj:0)
t_x800                                              1 	(obj:0)
t_x802                                              1 	(obj:0)
t_x804                                              1 	(obj:0)
t_x806                                              1 	(obj:0)
t_x808                                              1 	(obj:0)
t_x810                                              1 	(obj:0)
t_x812                                              1 	(obj:0)
t_x814                                              1 	(obj:0)
t_x816                                              1 	(obj:0)
t_x818                                              1 	(obj:0)
t_x820                                              1 	(obj:0)
t_x822                                              1 	(obj:0)
t_x824                                              1 	(obj:0)
t_x826                                              1 	(obj:0)
t_x828                                              1 	(obj:0)
t_x830                                              1 	(obj:0)
t_x832                                              1 	(obj:0)
t_x834                                              1 	(obj:0)
t_x836                                              1 	(obj:0)
t_x838                                              1 	(obj:0)
t_x840                                              1 	(obj:0)
t_x842                                              1 	(obj:0)
t_x844                                              1 	(obj:0)
t_x846                                              1 	(obj:0)
t_x848                                              1 	(obj:0)
t_x850                                              1 	(obj:0)
t_x858                                              1 	(obj:0)
t_x860                                              1 	(obj:0)
t_x864                                              1 	(obj:0)
t_x868                                              1 	(obj:0)
t_x870                                              1 	(obj:0)
t_x872                                              1 	(obj:0)
t_x874                                              1 	(obj:0)
t_x876                                              1 	(obj:0)
t_x880                                              1 	(obj:0)
t_x882                                              1 	(obj:0)
t_x884                                              1 	(obj:0)
t_x888                                              1 	(obj:0)
t_x890                                              1 	(obj:0)
t_x892                                              1 	(obj:0)
t_x894                                              1 	(obj:0)
t_x896                                              1 	(obj:0)
t_x898                                              1 	(obj:0)
t_x900                                              1 	(obj:0)
t_x902                                              1 	(obj:0)
t_x904                                              1 	(obj:0)
t_x906                                              1 	(obj:0)
t_x908                                              1 	(obj:0)
t_x910                                              1 	(obj:0)
t_x912                                              1 	(obj:0)
t_x914                                              1 	(obj:0)
t_x916                                              1 	(obj:0)
t_x918                                              1 	(obj:0)
t_x920                                              1 	(obj:0)
t_x922                                              1 	(obj:0)
t_x924                                              1 	(obj:0)
t_x926                                              1 	(obj:0)
t_x928                                              1 	(obj:0)
t_x930                                              1 	(obj:0)
t_x932                                              1 	(obj:0)
t_x934                                              1 	(obj:0)
t_x936                                              1 	(obj:0)
t_x938                                              1 	(obj:0)
t_x940                                              1 	(obj:0)
t_x942                                              1 	(obj:0)
t_x944                                              1 	(obj:0)
t_x946                                              1 	(obj:0)
t_x948                                              1 	(obj:0)
t_x950                                              1 	(obj:0)
t_x952                                              1 	(obj:0)
t_x954                                              1 	(obj:0)
t_x956                                              1 	(obj:0)
t_x958                                              1 	(obj:0)
t_x960                                              1 	(obj:0)
t_x962                                              1 	(obj:0)
t_x964                                              1 	(obj:0)
t_x966                                              1 	(obj:0)
t_x968                                              1 	(obj:0)
t_x970                                              1 	(obj:0)
t_x972                                              1 	(obj:0)
t_x974                                              1 	(obj:0)
t_x976                                              1 	(obj:0)
t_x978                                              1 	(obj:0)
t_x980                                              1 	(obj:0)
t_x982                                              1 	(obj:0)
t_x984                                              1 	(obj:0)
t_x986                                              1 	(obj:0)
t_x988                                              1 	(obj:0)
t_x990                                              1 	(obj:0)
t_x992                                              1 	(obj:0)
t_x994                                              1 	(obj:0)
t_x996                                              1 	(obj:0)
t_x998                                              1 	(obj:0)
t_x1000                                             1 	(obj:0)
t_x1002                                             1 	(obj:0)
t_x1004                                             1 	(obj:0)
t_x1006                                             1 	(obj:0)
t_x1008                                             1 	(obj:0)
t_x1010                                             1 	(obj:0)
t_x1012                                             1 	(obj:0)
t_x1014                                             1 	(obj:0)
t_x1016                                             1 	(obj:0)
t_x1018                                             1 	(obj:0)
t_x1020                                             1 	(obj:0)
t_x1022                                             1 	(obj:0)
t_x1024                                             1 	(obj:0)
t_x1026                                             1 	(obj:0)
t_x1028                                             1 	(obj:0)
t_x1030                                             1 	(obj:0)
t_x1032                                             1 	(obj:0)
t_x1034                                             1 	(obj:0)
t_x1036                                             1 	(obj:0)
t_x1038                                             1 	(obj:0)
t_x1040                                             1 	(obj:0)
t_x1042                                             1 	(obj:0)
t_x1044                                             1 	(obj:0)
t_x1046                                             1 	(obj:0)
t_x1048                                             1 	(obj:0)
t_x1050                                             1 	(obj:0)
t_x1052                                             1 	(obj:0)
t_x1054                                             1 	(obj:0)
t_x1056                                             1 	(obj:0)
t_x1058                                             1 	(obj:0)
t_x1060                                             1 	(obj:0)
t_x1062                                             1 	(obj:0)
t_x1064                                             1 	(obj:0)
t_x1066                                             1 	(obj:0)
t_x1068                                             1 	(obj:0)
t_x1070                                             1 	(obj:0)
t_x1072                                             1 	(obj:0)
t_x1074                                             1 	(obj:0)
t_x1076                                             1 	(obj:0)
t_x1078                                             1 	(obj:0)
t_x1080                                             1 	(obj:0)
t_x1082                                             1 	(obj:0)
t_x1084                                             1 	(obj:0)
t_x1086                                             1 	(obj:0)
t_x1088                                             1 	(obj:0)
t_x1090                                             1 	(obj:0)
t_x1092                                             1 	(obj:0)
t_x1096                                             1 	(obj:0)
t_x1098                                             1 	(obj:0)
t_x1100                                             1 	(obj:0)
t_x1102                                             1 	(obj:0)
t_x1104                                             1 	(obj:0)
t_x1106                                             1 	(obj:0)
t_x1108                                             1 	(obj:0)
t_x1110                                             1 	(obj:0)
t_x1112                                             1 	(obj:0)
t_x1114                                             1 	(obj:0)
t_x1116                                             1 	(obj:0)
t_x1118                                             1 	(obj:0)
t_x1122                                             1 	(obj:0)
t_x1124                                             1 	(obj:0)
t_x1126                                             1 	(obj:0)
t_x1128                                             1 	(obj:0)
t_x1130                                             1 	(obj:0)
t_x1132                                             1 	(obj:0)
t_x1134                                             1 	(obj:0)
t_x1136                                             1 	(obj:0)
t_x1140                                             1 	(obj:0)
t_x1142                                             1 	(obj:0)
t_x1144                                             1 	(obj:0)
t_x1146                                             1 	(obj:0)
t_x1148                                             1 	(obj:0)
t_x1150                                             1 	(obj:0)
t_x1152                                             1 	(obj:0)
t_x1154                                             1 	(obj:0)
t_x1156                                             1 	(obj:0)
t_x90                                             558 	(obj:0)
t_x154                                           4882 	(obj:0)
t_x155                                            216 	(obj:0)
t_x54                                            1724 	(obj:0)
t_x55                                             216 	(obj:0)
t_x94                                            2982 	(obj:0)
t_x159                                           5196 	(obj:0)
t_x160                                            216 	(obj:0)
t_x95                                             398 	(obj:0)
t_x10                                              84 	(obj:0)
t_x19                                             118 	(obj:0)
t_x164                                           5426 	(obj:0)
t_x34                                             878 	(obj:0)
t_x99                                            3178 	(obj:0)
t_x100                                            216 	(obj:0)
t_x59                                            1926 	(obj:0)
t_x60                                             440 	(obj:0)
t_x35                                             216 	(obj:0)
t_x104                                           3318 	(obj:0)
t_x105                                            558 	(obj:0)
t_x20                                             216 	(obj:0)
t_x64                                            2108 	(obj:0)
t_x109                                           3458 	(obj:0)
t_x110                                            440 	(obj:0)
t_x65                                             440 	(obj:0)
t_x1                                             5600 	(obj:1)
t_x39                                            1228 	(obj:0)
t_x114                                           3632 	(obj:0)
t_x115                                            558 	(obj:0)
t_x40                                             440 	(obj:0)
t_x69                                            2226 	(obj:0)
t_x70                                             440 	(obj:0)
t_x119                                           3750 	(obj:0)
t_x120                                            216 	(obj:0)
t_x4                                               84 	(obj:0)
t_x24                                             250 	(obj:0)
t_x25                                             216 	(obj:0)
t_x124                                           3932 	(obj:0)
t_x125                                            216 	(obj:0)
t_x74                                            2352 	(obj:0)
t_x75                                             440 	(obj:0)
t_x44                                             250 	(obj:0)
t_x129                                           4092 	(obj:0)
t_x130                                            216 	(obj:0)
t_x45                                             216 	(obj:0)
t_x14                                             118 	(obj:0)
t_x79                                            2688 	(obj:0)
t_x134                                           4210 	(obj:0)
t_x135                                            216 	(obj:0)
t_x80                                             558 	(obj:0)
t_x15                                             216 	(obj:0)
t_x139                                           4546 	(obj:0)
t_x140                                            216 	(obj:0)
t_x49                                            1522 	(obj:0)
t_x84                                            2688 	(obj:0)
t_x85                                             676 	(obj:0)
t_x144                                           4672 	(obj:0)
t_x145                                            558 	(obj:0)
t_x50                                             216 	(obj:0)
t_x29                                             564 	(obj:0)
t_x30                                             216 	(obj:0)
t_x149                                           4672 	(obj:0)
t_x150                                            216 	(obj:0)
t_x89                                            2688 	(obj:0)
